(set-info :smt-lib-version 2.6)
(set-logic QF_LIA)
(set-info :source |
Alberto Griggio

|)
(set-info :category "random")
(set-info :status unsat)
(declare-fun x0 () Int)
(declare-fun x1 () Int)
(declare-fun x2 () Int)
(declare-fun x3 () Int)
(declare-fun x4 () Int)
(declare-fun x5 () Int)
(declare-fun x6 () Int)
(declare-fun x7 () Int)
(declare-fun x8 () Int)
(declare-fun x9 () Int)
(assert (let ((?v_4 (* 1 x4)) (?v_1 (* 1 x5)) (?v_8 (* 1 x6)) (?v_19 (* 0 x2)) (?v_12 (* 1 x2)) (?v_10 (* 1 x0)) (?v_5 (* 0 x6)) (?v_2 (* 0 x3)) (?v_7 (* 1 x1)) (?v_3 (* 0 x1)) (?v_22 (* 1 x7)) (?v_14 (* 0 x0)) (?v_18 (* 0 x4)) (?v_24 (* 1 x3)) (?v_25 (* 1 x8)) (?v_23 (* 0 x5)) (?v_16 (* 0 x9)) (?v_9 (* 0 x7)) (?v_29 (* 1 x9)) (?v_17 (* 0 x8)) (?v_21 (* (- 1) x2)) (?v_0 (* (- 1) x0)) (?v_6 (* (- 1) x5)) (?v_20 (* (- 1) x3)) (?v_13 (* (- 1) x7)) (?v_11 (* (- 1) x1)) (?v_15 (* (- 1) x6)) (?v_28 (* (- 1) x9)) (?v_26 (* (- 1) x4)) (?v_27 (* (- 1) x8))) (and (<= (+ ?v_4 ?v_21 ?v_2 ?v_0 ?v_1 ?v_8 ?v_19 ?v_0 ?v_6 ?v_20) 0) (<= (+ ?v_12 ?v_10 ?v_1 ?v_13 ?v_5 ?v_17 ?v_16 ?v_2 ?v_7 ?v_9) 0) (<= (+ ?v_3 ?v_3 ?v_11 ?v_3 ?v_4 ?v_22 ?v_14 ?v_5 ?v_6 ?v_18) 0) (<= (+ ?v_7 ?v_8 ?v_9 ?v_10 ?v_11 ?v_12 ?v_13 ?v_14 ?v_24 ?v_15) (- 1)) (<= (+ ?v_3 ?v_25 ?v_5 ?v_15 ?v_14 ?v_10 ?v_3 ?v_16 ?v_12 ?v_10) 0) (<= (+ ?v_12 ?v_14 ?v_17 ?v_3 ?v_18 ?v_19 ?v_18 ?v_20 ?v_7 ?v_28) 0) (<= (+ ?v_2 ?v_15 ?v_11 ?v_12 ?v_8 ?v_6 ?v_21 ?v_23 ?v_22 ?v_13) 0) (<= (+ ?v_4 ?v_11 ?v_18 ?v_14 ?v_21 ?v_14 ?v_16 ?v_1 ?v_10 ?v_5) 0) (<= (+ ?v_18 ?v_6 ?v_6 ?v_9 ?v_18 ?v_16 ?v_15 ?v_26 ?v_12 ?v_22) 0) (<= (+ ?v_5 ?v_9 ?v_6 ?v_2 ?v_23 ?v_16 ?v_18 ?v_8 ?v_24 ?v_6) 0) (<= (+ ?v_16 ?v_29 ?v_19 ?v_22 ?v_22 ?v_23 ?v_27 ?v_25 ?v_23 ?v_4) (- 1)) (<= (+ ?v_9 ?v_17 ?v_17 ?v_6 ?v_16 ?v_4 ?v_6 ?v_14 ?v_26 ?v_1) 0) (<= (+ ?v_22 ?v_9 ?v_17 ?v_0 ?v_15 ?v_15 ?v_19 ?v_7 ?v_21 ?v_23) 1) (<= (+ ?v_22 ?v_16 ?v_24 ?v_20 ?v_24 ?v_8 ?v_1 ?v_27 ?v_21 ?v_16) 0) (<= (+ ?v_22 ?v_2 ?v_28 ?v_12 ?v_2 ?v_5 ?v_27 ?v_14 ?v_14 ?v_6) 1) (<= (+ ?v_16 ?v_22 ?v_5 ?v_19 ?v_19 ?v_23 ?v_2 ?v_23 ?v_22 ?v_14) 1) (<= (+ ?v_4 ?v_2 ?v_9 ?v_3 ?v_21 ?v_14 ?v_9 ?v_26 ?v_7 ?v_20) (- 1)) (<= (+ ?v_7 ?v_16 ?v_6 ?v_23 ?v_28 ?v_27 ?v_2 ?v_23 ?v_9 ?v_28) (- 1)) (<= (+ ?v_18 ?v_16 ?v_13 ?v_12 ?v_14 ?v_5 ?v_3 ?v_15 ?v_23 ?v_17) 0) (<= (+ ?v_23 ?v_19 ?v_15 ?v_29 ?v_3 ?v_16 ?v_3 ?v_18 ?v_15 ?v_21) 0) (<= (+ ?v_3 ?v_17 ?v_20 ?v_9 ?v_1 ?v_3 ?v_6 ?v_20 ?v_29 ?v_23) 1) (<= (+ ?v_14 ?v_9 ?v_7 ?v_29 ?v_2 ?v_7 ?v_14 ?v_28 ?v_2 ?v_19) 0) (<= (+ ?v_9 ?v_7 ?v_19 ?v_29 ?v_5 ?v_1 ?v_23 ?v_29 ?v_14 ?v_6) (- 1)) (<= (+ ?v_12 ?v_17 ?v_14 ?v_7 ?v_16 ?v_24 ?v_23 ?v_24 ?v_1 ?v_3) 0) (<= (+ ?v_5 ?v_17 ?v_17 ?v_9 ?v_28 ?v_14 ?v_29 ?v_17 ?v_8 ?v_3) (- 1)) (<= (+ ?v_29 ?v_6 ?v_4 ?v_22 ?v_23 ?v_9 ?v_11 ?v_8 ?v_21 ?v_19) 0) (<= (+ ?v_24 ?v_10 ?v_6 ?v_19 ?v_25 ?v_22 ?v_19 ?v_9 ?v_2 ?v_14) (- 1)) (<= (+ ?v_5 ?v_7 ?v_2 ?v_17 ?v_3 ?v_19 ?v_5 ?v_15 ?v_9 ?v_14) 0) (<= (+ ?v_19 ?v_1 ?v_16 ?v_7 ?v_14 ?v_17 ?v_9 ?v_25 ?v_14 ?v_5) 0) (<= (+ ?v_9 ?v_7 ?v_2 ?v_28 ?v_2 ?v_5 ?v_28 ?v_25 ?v_4 ?v_23) 0))))
(check-sat)
(exit)
